c
c Renamed file of my_adder.cnf 
c Variables are renamed according to left2right.ord 
c
c Date: Thu Apr 29 14:49:52 PDT 2004 by (jinbo)
c Host: Linux solution 2.4.18-4smp #1 SMP Thu May 2 18:32:34 EDT 2002 i686 unknown
c
c Copyright (c) 2001 Fadi A. Aloul.
c
p cnf 212 612
-199 -198 0
198 199 0
-198 197 0
-197 198 0
-191 -195 0
195 191 0
-195 196 0
-196 195 0
-178 -182 0
182 178 0
-182 183 0
-183 182 0
-165 -169 0
169 165 0
-169 170 0
-170 169 0
-152 -156 0
156 152 0
-156 157 0
-157 156 0
-139 -143 0
143 139 0
-143 144 0
-144 143 0
-121 -109 0
109 121 0
-109 108 0
-108 109 0
-110 -107 0
107 110 0
-107 106 0
-106 107 0
-101 -104 0
104 101 0
-104 105 0
-105 104 0
-87 -91 0
91 87 0
-91 92 0
-92 91 0
-74 -78 0
78 74 0
-78 79 0
-79 78 0
-61 -65 0
65 61 0
-65 66 0
-66 65 0
-48 -52 0
52 48 0
-52 53 0
-53 52 0
-30 -16 0
16 30 0
-16 15 0
-15 16 0
-24 -28 0
28 24 0
-28 29 0
-29 28 0
-2 -12 0
12 2 0
-12 13 0
-13 12 0
-210 -211 0
211 210 0
-211 212 0
-212 211 0
206 -203 0
205 -203 0
202 -203 0
203 -206 -205 -202 0
-203 199 0
-206 -201 0
-205 -201 0
202 -201 0
201 206 205 -202 0
-201 199 0
-206 -200 0
205 -200 0
-202 -200 0
200 206 -205 202 0
-200 199 0
206 -204 0
-205 -204 0
-202 -204 0
204 -206 205 202 0
-204 199 0
-199 203 201 200 204 0
188 -187 0
189 -187 0
185 -187 0
187 -188 -189 -185 0
-187 191 0
-188 -190 0
-189 -190 0
185 -190 0
190 188 189 -185 0
-190 191 0
-188 -186 0
189 -186 0
-185 -186 0
186 188 -189 185 0
-186 191 0
188 -184 0
-189 -184 0
-185 -184 0
184 -188 189 185 0
-184 191 0
-191 187 190 186 184 0
175 -174 0
176 -174 0
172 -174 0
174 -175 -176 -172 0
-174 178 0
-175 -177 0
-176 -177 0
172 -177 0
177 175 176 -172 0
-177 178 0
-175 -173 0
176 -173 0
-172 -173 0
173 175 -176 172 0
-173 178 0
175 -171 0
-176 -171 0
-172 -171 0
171 -175 176 172 0
-171 178 0
-178 174 177 173 171 0
162 -161 0
163 -161 0
159 -161 0
161 -162 -163 -159 0
-161 165 0
-162 -164 0
-163 -164 0
159 -164 0
164 162 163 -159 0
-164 165 0
-162 -160 0
163 -160 0
-159 -160 0
160 162 -163 159 0
-160 165 0
162 -158 0
-163 -158 0
-159 -158 0
158 -162 163 159 0
-158 165 0
-165 161 164 160 158 0
149 -148 0
150 -148 0
146 -148 0
148 -149 -150 -146 0
-148 152 0
-149 -151 0
-150 -151 0
146 -151 0
151 149 150 -146 0
-151 152 0
-149 -147 0
150 -147 0
-146 -147 0
147 149 -150 146 0
-147 152 0
149 -145 0
-150 -145 0
-146 -145 0
145 -149 150 146 0
-145 152 0
-152 148 151 147 145 0
136 -135 0
137 -135 0
133 -135 0
135 -136 -137 -133 0
-135 139 0
-136 -138 0
-137 -138 0
133 -138 0
138 136 137 -133 0
-138 139 0
-136 -134 0
137 -134 0
-133 -134 0
134 136 -137 133 0
-134 139 0
136 -132 0
-137 -132 0
-133 -132 0
132 -136 137 133 0
-132 139 0
-139 135 138 134 132 0
128 -123 0
127 -123 0
124 -123 0
123 -128 -127 -124 0
-123 121 0
-128 -122 0
-127 -122 0
124 -122 0
122 128 127 -124 0
-122 121 0
-128 -125 0
127 -125 0
-124 -125 0
125 128 -127 124 0
-125 121 0
128 -126 0
-127 -126 0
-124 -126 0
126 -128 127 124 0
-126 121 0
-121 123 122 125 126 0
117 -112 0
116 -112 0
113 -112 0
112 -117 -116 -113 0
-112 110 0
-117 -111 0
-116 -111 0
113 -111 0
111 117 116 -113 0
-111 110 0
-117 -114 0
116 -114 0
-113 -114 0
114 117 -116 113 0
-114 110 0
117 -115 0
-116 -115 0
-113 -115 0
115 -117 116 113 0
-115 110 0
-110 112 111 114 115 0
99 -100 0
97 -100 0
94 -100 0
100 -99 -97 -94 0
-100 101 0
-99 -98 0
-97 -98 0
94 -98 0
98 99 97 -94 0
-98 101 0
-99 -95 0
97 -95 0
-94 -95 0
95 99 -97 94 0
-95 101 0
99 -96 0
-97 -96 0
-94 -96 0
96 -99 97 94 0
-96 101 0
-101 100 98 95 96 0
84 -83 0
85 -83 0
81 -83 0
83 -84 -85 -81 0
-83 87 0
-84 -86 0
-85 -86 0
81 -86 0
86 84 85 -81 0
-86 87 0
-84 -82 0
85 -82 0
-81 -82 0
82 84 -85 81 0
-82 87 0
84 -80 0
-85 -80 0
-81 -80 0
80 -84 85 81 0
-80 87 0
-87 83 86 82 80 0
71 -70 0
72 -70 0
68 -70 0
70 -71 -72 -68 0
-70 74 0
-71 -73 0
-72 -73 0
68 -73 0
73 71 72 -68 0
-73 74 0
-71 -69 0
72 -69 0
-68 -69 0
69 71 -72 68 0
-69 74 0
71 -67 0
-72 -67 0
-68 -67 0
67 -71 72 68 0
-67 74 0
-74 70 73 69 67 0
58 -57 0
59 -57 0
55 -57 0
57 -58 -59 -55 0
-57 61 0
-58 -60 0
-59 -60 0
55 -60 0
60 58 59 -55 0
-60 61 0
-58 -56 0
59 -56 0
-55 -56 0
56 58 -59 55 0
-56 61 0
58 -54 0
-59 -54 0
-55 -54 0
54 -58 59 55 0
-54 61 0
-61 57 60 56 54 0
45 -44 0
46 -44 0
42 -44 0
44 -45 -46 -42 0
-44 48 0
-45 -47 0
-46 -47 0
42 -47 0
47 45 46 -42 0
-47 48 0
-45 -43 0
46 -43 0
-42 -43 0
43 45 -46 42 0
-43 48 0
45 -41 0
-46 -41 0
-42 -41 0
41 -45 46 42 0
-41 48 0
-48 44 47 43 41 0
37 -32 0
36 -32 0
33 -32 0
32 -37 -36 -33 0
-32 30 0
-37 -31 0
-36 -31 0
33 -31 0
31 37 36 -33 0
-31 30 0
-37 -34 0
36 -34 0
-33 -34 0
34 37 -36 33 0
-34 30 0
37 -35 0
-36 -35 0
-33 -35 0
35 -37 36 33 0
-35 30 0
-30 32 31 34 35 0
21 -20 0
22 -20 0
18 -20 0
20 -21 -22 -18 0
-20 24 0
-21 -23 0
-22 -23 0
18 -23 0
23 21 22 -18 0
-23 24 0
-21 -19 0
22 -19 0
-18 -19 0
19 21 -22 18 0
-19 24 0
21 -17 0
-22 -17 0
-18 -17 0
17 -21 22 18 0
-17 24 0
-24 20 23 19 17 0
-7 -5 0
8 -5 0
6 -5 0
5 7 -8 -6 0
-5 2 0
7 -3 0
-8 -3 0
6 -3 0
3 -7 8 -6 0
-3 2 0
7 -1 0
8 -1 0
-6 -1 0
1 -7 -8 6 0
-1 2 0
-7 -4 0
-8 -4 0
-6 -4 0
4 7 8 6 0
-4 2 0
-2 5 3 1 4 0
-206 -209 0
-205 -209 0
209 206 205 0
-209 210 0
-206 -208 0
202 -208 0
208 206 -202 0
-208 210 0
-205 -207 0
202 -207 0
207 205 -202 0
-207 210 0
-210 209 208 207 0
-7 -11 0
-8 -11 0
11 7 8 0
-11 18 0
-7 -10 0
-6 -10 0
10 7 6 0
-10 18 0
-8 -9 0
-6 -9 0
9 8 6 0
-9 18 0
-18 11 10 9 0
-21 -27 0
-22 -27 0
27 21 22 0
-27 33 0
-21 -25 0
18 -25 0
25 21 -18 0
-25 33 0
-22 -26 0
18 -26 0
26 22 -18 0
-26 33 0
-33 27 25 26 0
-37 -40 0
-36 -40 0
40 37 36 0
-40 42 0
-37 -39 0
33 -39 0
39 37 -33 0
-39 42 0
-36 -38 0
33 -38 0
38 36 -33 0
-38 42 0
-42 40 39 38 0
-45 -51 0
-46 -51 0
51 45 46 0
-51 55 0
-45 -49 0
42 -49 0
49 45 -42 0
-49 55 0
-46 -50 0
42 -50 0
50 46 -42 0
-50 55 0
-55 51 49 50 0
-58 -64 0
-59 -64 0
64 58 59 0
-64 68 0
-58 -62 0
55 -62 0
62 58 -55 0
-62 68 0
-59 -63 0
55 -63 0
63 59 -55 0
-63 68 0
-68 64 62 63 0
-71 -77 0
-72 -77 0
77 71 72 0
-77 81 0
-71 -75 0
68 -75 0
75 71 -68 0
-75 81 0
-72 -76 0
68 -76 0
76 72 -68 0
-76 81 0
-81 77 75 76 0
-84 -90 0
-85 -90 0
90 84 85 0
-90 94 0
-84 -88 0
81 -88 0
88 84 -81 0
-88 94 0
-85 -89 0
81 -89 0
89 85 -81 0
-89 94 0
-94 90 88 89 0
-99 -103 0
-97 -103 0
103 99 97 0
-103 113 0
-99 -102 0
94 -102 0
102 99 -94 0
-102 113 0
-97 -93 0
94 -93 0
93 97 -94 0
-93 113 0
-113 103 102 93 0
-117 -120 0
-116 -120 0
120 117 116 0
-120 124 0
-117 -118 0
113 -118 0
118 117 -113 0
-118 124 0
-116 -119 0
113 -119 0
119 116 -113 0
-119 124 0
-124 120 118 119 0
-128 -131 0
-127 -131 0
131 128 127 0
-131 133 0
-128 -130 0
124 -130 0
130 128 -124 0
-130 133 0
-127 -129 0
124 -129 0
129 127 -124 0
-129 133 0
-133 131 130 129 0
-136 -142 0
-137 -142 0
142 136 137 0
-142 146 0
-136 -140 0
133 -140 0
140 136 -133 0
-140 146 0
-137 -141 0
133 -141 0
141 137 -133 0
-141 146 0
-146 142 140 141 0
-149 -155 0
-150 -155 0
155 149 150 0
-155 159 0
-149 -153 0
146 -153 0
153 149 -146 0
-153 159 0
-150 -154 0
146 -154 0
154 150 -146 0
-154 159 0
-159 155 153 154 0
-162 -168 0
-163 -168 0
168 162 163 0
-168 172 0
-162 -166 0
159 -166 0
166 162 -159 0
-166 172 0
-163 -167 0
159 -167 0
167 163 -159 0
-167 172 0
-172 168 166 167 0
-175 -181 0
-176 -181 0
181 175 176 0
-181 185 0
-175 -179 0
172 -179 0
179 175 -172 0
-179 185 0
-176 -180 0
172 -180 0
180 176 -172 0
-180 185 0
-185 181 179 180 0
-188 -194 0
-189 -194 0
194 188 189 0
-194 202 0
-188 -192 0
185 -192 0
192 188 -185 0
-192 202 0
-189 -193 0
185 -193 0
193 189 -185 0
-193 202 0
-202 194 192 193 0
